language ESSENCE' 1.0

letting jobs = 102
letting horizon = 794
letting resourcesRenew = 2
letting resourcesNonrenew = 2
letting resourceLimits = [20, 20, 147, 163]
letting successors = [[2, 3, 4, 5, 6, 7, 8, 10, 11, 12, 14, 15, 16, 17, 22, 23, 26, 29, 30, 35, 44], [38, 33, 31, 27, 25, 18, 13, 9], [50, 49, 47, 46, 45, 43, 42, 38, 27, 25, 24, 19], [50, 49, 46, 43, 42, 38, 34, 32, 31, 27, 25, 24], [61, 47, 45, 43, 38, 32, 27, 25, 13], [59, 50, 49, 46, 43, 40, 38, 36, 33, 27, 18], [71, 59, 52, 50, 49, 40, 37, 36, 33, 31, 28, 27], [61, 59, 50, 49, 47, 45, 37, 32, 27, 24], [59, 53, 50, 49, 43, 41, 40, 39, 36, 20], [75, 49, 47, 45, 41, 38, 37, 34, 24], [71, 59, 58, 53, 49, 41, 36, 31, 21], [50, 47, 32, 27, 25, 20], [75, 59, 58, 50, 49, 46, 41, 37, 24], [71, 61, 59, 49, 47, 45, 41, 25], [71, 68, 58, 40, 39, 37, 27], [75, 71, 61, 59, 58, 57, 53, 43, 41, 39, 37], [71, 54, 50, 40, 25], [75, 74, 72, 71, 68, 61, 58, 57, 54, 52, 51, 39, 37], [71, 64, 63, 58, 57, 55, 41, 37, 36], [75, 74, 71, 68, 64, 63, 61, 58, 57, 55, 54, 51, 45, 37], [75, 74, 61, 54, 51, 50, 45, 39, 37], [75, 73, 72, 71, 68, 63, 61, 55, 54, 52, 50, 48, 45], [72, 71, 64, 63, 61, 58, 55, 52, 50, 37], [71, 68, 57, 53, 52, 51, 48, 39], [75, 68, 57, 53, 39, 37], [83, 74, 72, 71, 68, 65, 59, 58, 56, 51, 39], [75, 70, 64, 63, 57, 53, 48, 41], [68, 58, 56, 53, 51, 39], [83, 75, 74, 73, 72, 70, 68, 65, 64, 62, 61, 59, 55, 48], [83, 82, 74, 70, 65, 63, 58, 57, 56, 54, 51], [83, 82, 77, 70, 68, 66, 64, 63, 62, 61, 60, 56, 55], [100, 83, 82, 77, 73, 72, 67, 64, 58, 57, 56, 51], [101, 82, 81, 77, 70, 67, 64, 62, 60, 57, 56, 53], [77, 74, 73, 72, 70, 67, 61, 59, 58, 56, 51], [82, 71, 70, 69, 67, 63, 62, 59, 58, 56, 53], [83, 82, 81, 78, 77, 75, 73, 70, 69, 67, 66, 62, 61, 56], [83, 81, 78, 73, 70, 65, 62, 48], [101, 96, 83, 82, 81, 78, 73, 72, 70, 62, 60, 57], [101, 93, 82, 77, 73, 70, 69, 66, 64, 63, 55], [83, 82, 78, 67, 66, 63, 62, 61, 60, 56], [99, 83, 77, 74, 72, 54, 51], [98, 93, 82, 78, 77, 75, 74, 70, 67, 66, 65, 63], [101, 97, 93, 82, 77, 76, 67, 66, 65, 64, 60], [97, 83, 78, 72, 48], [101, 97, 96, 94, 83, 81, 78, 77, 76, 66, 60, 56], [101, 98, 96, 93, 83, 82, 78, 77, 76, 69, 66, 65], [99, 98, 96, 94, 82, 78, 76, 73, 69, 68, 67, 66], [101, 96, 94, 82, 77, 76, 66, 60, 56], [99, 94, 93, 78, 77, 76, 72, 70, 69, 66], [101, 81, 70, 62, 57], [101, 97, 96, 95, 92, 80, 78, 62, 60], [101, 98, 97, 96, 95, 94, 93, 92, 91, 88, 87, 86, 83, 81, 80, 79, 77], [100, 97, 93, 92, 91, 87, 85, 83, 78, 76, 74, 72], [100, 94, 93, 88, 81, 78, 76, 69, 67], [100, 99, 94, 90, 89, 88, 78, 76, 67], [99, 98, 95, 93, 92, 91, 90, 88, 87, 86, 80, 79], [99, 93, 91, 90, 89, 87, 84, 66], [93, 91, 89, 81, 79, 66], [98, 97, 92, 91, 88, 87, 86, 85, 79], [98, 90, 88, 86, 69], [101, 97, 96, 94, 93, 87, 85, 79], [94, 93, 91, 87, 85, 76], [100, 91, 85, 81, 76], [98, 96, 86, 80, 78], [100, 99, 94, 92, 90, 89, 87], [95, 92, 88, 86, 80], [92, 87, 86, 85, 79], [93, 90, 89, 86, 85], [91, 89, 85, 79], [100, 97, 87, 84], [97, 94, 86, 85], [90, 89, 79], [87, 85, 79], [96, 89, 88], [95, 88, 85], [86, 79], [90, 84], [79], [84], [85], [84], [89], [90], [102], [102], [102], [102], [102], [102], [102], [102], [102], [102], [102], [102], [102], [102], [102], [102], [102], [102], []]
letting durations = [[0], [2, 7, 9], [2, 3, 4], [2, 3, 10], [1, 3, 10], [1, 5, 9], [4, 5, 6], [3, 7, 7], [1, 7, 8], [5, 9, 10], [2, 3, 4], [2, 2, 10], [1, 3, 8], [1, 4, 5], [1, 4, 5], [2, 9, 10], [5, 5, 6], [2, 3, 9], [3, 3, 9], [1, 3, 10], [3, 4, 8], [3, 4, 9], [1, 6, 9], [2, 4, 5], [2, 4, 10], [1, 2, 9], [5, 6, 8], [1, 4, 7], [1, 1, 2], [4, 9, 10], [2, 5, 6], [1, 2, 5], [3, 8, 9], [1, 2, 8], [3, 4, 9], [2, 5, 7], [1, 2, 8], [2, 7, 9], [1, 8, 9], [7, 8, 10], [2, 5, 8], [1, 8, 9], [6, 8, 9], [1, 9, 10], [3, 5, 7], [4, 6, 8], [5, 5, 6], [2, 3, 8], [3, 3, 7], [7, 8, 9], [2, 3, 5], [1, 2, 9], [5, 9, 9], [1, 4, 7], [3, 9, 9], [4, 5, 6], [2, 2, 3], [3, 4, 5], [4, 5, 8], [4, 8, 10], [1, 7, 8], [1, 9, 10], [1, 2, 7], [3, 4, 6], [1, 7, 10], [7, 8, 9], [3, 3, 4], [5, 7, 9], [3, 6, 7], [3, 4, 9], [1, 9, 10], [2, 2, 3], [4, 8, 9], [4, 7, 9], [4, 7, 9], [2, 9, 10], [4, 10, 10], [2, 9, 10], [1, 6, 8], [1, 4, 9], [1, 4, 9], [1, 1, 10], [1, 5, 6], [7, 8, 9], [6, 9, 10], [4, 5, 8], [2, 6, 7], [1, 2, 5], [4, 5, 10], [3, 5, 7], [6, 8, 10], [1, 6, 7], [1, 3, 5], [3, 5, 10], [2, 3, 9], [9, 10, 10], [2, 6, 7], [2, 2, 6], [1, 5, 6], [3, 8, 9], [3, 3, 10], [0]]
letting resourceUsage = [[[0, 0, 0, 0]], [[5, 3, 2, 0], [4, 2, 1, 0], [3, 2, 1, 0]], [[5, 4, 0, 5], [2, 3, 0, 5], [1, 3, 0, 2]], [[2, 4, 0, 10], [2, 4, 0, 9], [2, 4, 0, 8]], [[5, 5, 0, 7], [4, 4, 0, 7], [2, 4, 0, 1]], [[5, 2, 9, 0], [3, 1, 7, 0], [3, 1, 0, 4]], [[3, 3, 0, 5], [2, 3, 0, 3], [2, 1, 4, 0]], [[5, 4, 6, 0], [3, 4, 0, 7], [3, 4, 5, 0]], [[4, 4, 0, 10], [4, 4, 4, 0], [4, 4, 1, 0]], [[2, 4, 2, 0], [1, 3, 0, 6], [1, 2, 0, 5]], [[1, 3, 10, 0], [1, 2, 7, 0], [1, 1, 2, 0]], [[1, 3, 0, 10], [1, 3, 2, 0], [1, 1, 0, 8]], [[2, 4, 5, 0], [2, 3, 4, 0], [2, 3, 0, 1]], [[2, 1, 6, 0], [1, 1, 4, 0], [1, 1, 0, 5]], [[4, 2, 7, 0], [4, 2, 0, 4], [4, 1, 0, 3]], [[2, 2, 7, 0], [2, 2, 6, 0], [2, 2, 5, 0]], [[3, 5, 6, 0], [3, 3, 0, 2], [3, 3, 0, 1]], [[3, 2, 8, 0], [3, 2, 0, 5], [2, 1, 3, 0]], [[4, 4, 8, 0], [3, 4, 0, 3], [3, 4, 2, 0]], [[1, 2, 4, 0], [1, 2, 0, 3], [1, 1, 0, 3]], [[4, 3, 0, 9], [2, 3, 0, 9], [1, 3, 0, 8]], [[3, 3, 10, 0], [2, 2, 0, 7], [1, 1, 0, 4]], [[4, 3, 3, 0], [4, 2, 0, 7], [3, 1, 1, 0]], [[4, 1, 7, 0], [3, 1, 0, 5], [2, 1, 5, 0]], [[1, 5, 2, 0], [1, 3, 0, 6], [1, 3, 0, 5]], [[2, 4, 8, 0], [2, 3, 0, 2], [2, 3, 0, 1]], [[2, 5, 3, 0], [1, 5, 2, 0], [1, 5, 0, 9]], [[5, 5, 2, 0], [4, 5, 2, 0], [3, 5, 0, 2]], [[4, 3, 8, 0], [3, 3, 0, 3], [1, 3, 8, 0]], [[1, 1, 0, 4], [1, 1, 2, 0], [1, 1, 1, 0]], [[3, 4, 0, 8], [1, 3, 7, 0], [1, 3, 4, 0]], [[2, 2, 3, 0], [2, 1, 0, 4], [1, 1, 0, 2]], [[4, 5, 6, 0], [4, 4, 4, 0], [4, 4, 2, 0]], [[4, 3, 0, 5], [4, 3, 2, 0], [4, 1, 2, 0]], [[4, 3, 0, 9], [4, 3, 0, 7], [3, 3, 0, 7]], [[5, 2, 0, 3], [4, 2, 0, 2], [4, 2, 0, 1]], [[5, 4, 6, 0], [4, 3, 0, 3], [3, 3, 0, 3]], [[3, 5, 0, 1], [2, 5, 0, 1], [2, 5, 7, 0]], [[3, 5, 0, 6], [1, 4, 0, 6], [1, 3, 1, 0]], [[2, 3, 7, 0], [2, 2, 5, 0], [2, 2, 4, 0]], [[1, 2, 0, 9], [1, 2, 0, 8], [1, 2, 0, 7]], [[5, 2, 0, 1], [4, 1, 3, 0], [3, 1, 3, 0]], [[3, 3, 6, 0], [3, 2, 4, 0], [3, 2, 0, 1]], [[4, 5, 10, 0], [4, 3, 0, 6], [4, 3, 0, 4]], [[1, 2, 10, 0], [1, 2, 9, 0], [1, 2, 8, 0]], [[3, 3, 9, 0], [3, 3, 0, 3], [3, 3, 3, 0]], [[5, 3, 10, 0], [4, 2, 0, 7], [3, 2, 1, 0]], [[2, 5, 0, 10], [2, 3, 5, 0], [2, 3, 0, 5]], [[3, 3, 0, 10], [3, 2, 5, 0], [3, 2, 0, 9]], [[3, 4, 10, 0], [2, 3, 0, 5], [2, 3, 0, 3]], [[1, 3, 0, 3], [1, 3, 10, 0], [1, 3, 9, 0]], [[4, 5, 0, 1], [2, 4, 3, 0], [1, 3, 2, 0]], [[2, 5, 0, 3], [2, 3, 6, 0], [2, 2, 0, 1]], [[4, 4, 0, 7], [3, 4, 0, 6], [3, 3, 0, 6]], [[1, 4, 7, 0], [1, 4, 0, 3], [1, 4, 5, 0]], [[3, 2, 0, 7], [2, 1, 0, 6], [2, 1, 4, 0]], [[4, 4, 0, 8], [3, 4, 6, 0], [3, 4, 0, 1]], [[5, 5, 0, 10], [3, 3, 0, 6], [1, 2, 2, 0]], [[2, 3, 9, 0], [1, 1, 6, 0], [1, 1, 0, 4]], [[2, 1, 0, 4], [2, 1, 0, 2], [2, 1, 3, 0]], [[1, 3, 8, 0], [1, 2, 7, 0], [1, 1, 6, 0]], [[3, 3, 0, 5], [1, 3, 5, 0], [1, 3, 4, 0]], [[5, 5, 0, 4], [4, 4, 8, 0], [4, 3, 0, 1]], [[3, 3, 4, 0], [1, 3, 0, 2], [1, 3, 0, 1]], [[3, 5, 0, 9], [3, 3, 4, 0], [2, 3, 0, 8]], [[5, 4, 0, 6], [2, 3, 0, 5], [1, 3, 0, 3]], [[1, 2, 8, 0], [1, 2, 0, 3], [1, 2, 0, 2]], [[5, 2, 0, 4], [4, 1, 3, 0], [3, 1, 3, 0]], [[4, 4, 6, 0], [3, 3, 5, 0], [3, 1, 2, 0]], [[4, 4, 0, 8], [2, 4, 0, 7], [2, 4, 0, 5]], [[4, 4, 0, 5], [2, 4, 4, 0], [2, 3, 3, 0]], [[2, 3, 0, 7], [1, 3, 3, 0], [1, 2, 0, 2]], [[5, 2, 0, 6], [4, 2, 6, 0], [4, 2, 0, 3]], [[4, 3, 0, 2], [3, 2, 6, 0], [3, 1, 4, 0]], [[2, 5, 0, 5], [1, 2, 7, 0], [1, 2, 0, 1]], [[4, 3, 0, 6], [4, 3, 4, 0], [4, 3, 0, 5]], [[3, 2, 7, 0], [3, 2, 0, 3], [1, 2, 4, 0]], [[1, 2, 7, 0], [1, 2, 0, 1], [1, 2, 1, 0]], [[4, 4, 9, 0], [3, 2, 0, 5], [3, 1, 5, 0]], [[5, 3, 0, 8], [3, 2, 3, 0], [2, 2, 2, 0]], [[4, 2, 0, 9], [2, 1, 2, 0], [1, 1, 2, 0]], [[4, 5, 0, 9], [4, 4, 3, 0], [4, 2, 0, 4]], [[2, 5, 0, 9], [2, 5, 0, 6], [1, 5, 0, 4]], [[2, 4, 6, 0], [2, 3, 0, 2], [2, 2, 0, 1]], [[5, 1, 0, 2], [4, 1, 0, 1], [3, 1, 0, 1]], [[1, 1, 5, 0], [1, 1, 4, 0], [1, 1, 3, 0]], [[3, 3, 0, 2], [3, 3, 0, 1], [3, 3, 5, 0]], [[4, 4, 7, 0], [3, 3, 5, 0], [1, 2, 0, 2]], [[5, 3, 0, 5], [4, 3, 0, 2], [3, 3, 0, 2]], [[2, 3, 0, 9], [2, 2, 0, 5], [1, 2, 2, 0]], [[4, 5, 9, 0], [4, 3, 6, 0], [3, 3, 0, 10]], [[5, 4, 5, 0], [5, 3, 4, 0], [5, 2, 4, 0]], [[2, 5, 5, 0], [2, 5, 3, 0], [2, 5, 2, 0]], [[4, 3, 7, 0], [4, 3, 0, 9], [4, 1, 2, 0]], [[2, 4, 2, 0], [1, 2, 0, 7], [1, 2, 1, 0]], [[5, 5, 4, 0], [2, 4, 3, 0], [2, 4, 0, 2]], [[4, 4, 0, 7], [2, 4, 4, 0], [1, 3, 1, 0]], [[4, 3, 0, 4], [4, 3, 4, 0], [4, 2, 1, 0]], [[5, 1, 0, 6], [5, 1, 0, 5], [5, 1, 0, 4]], [[2, 5, 0, 5], [2, 4, 0, 4], [2, 3, 0, 4]], [[5, 5, 0, 6], [2, 4, 6, 0], [2, 2, 0, 4]], [[0, 0, 0, 0]]]
